S = 20;
P = 10;
Start = [0, 10, 0, 2, 0, 0, 7, 9, 0, 0, 0, 4, 3, 5, 1, 6, 8, 0, 0, 0];
Goal = [0, 7, 4, 0, 6, 10, 0, 0, 5, 0, 0, 0, 2, 1, 0, 8, 0, 9, 0, 3];
Can_swap = [true, false, false, false, true, true, false, true, true, false];
